% Automatically generated DZN file for Lot Sizing Problem

nb_item_types = 10;
nb_orders = 14;
nb_periods = 15;
inventory_cost = 10;

% item-type-1:		order-1, order-2, 
% item-type-2:		order-3, 
% item-type-3:		order-4, 
% item-type-4:		order-5, 
% item-type-5:		order-6, 
% item-type-6:		order-7, 
% item-type-7:		order-8, 
% item-type-8:		order-9, order-10, 
% item-type-9:		order-11, order-12, 
% item-type-10:		order-13, order-14, 

due_period = [ 8, 11, 13, 13, 14, 15, 13, 14, 7, 11, 14, 15, 9, 12,  ];
change_cost = array2d(Orders0, Orders0, [
% 	0   o1  o2  o3  o4  o5  o6  o7  o8  o9  o10  o11  o12  o13  o14  
	 0,  0,  0,  0,  0,  0,  0,  0,  0,  0,  0,  0,  0,  0,  0,   % 0
	 0,  0,  0,  197,  165,  141,  154,  169,  176,  177,  177,  186,  186,  149,  149,   % o1
	 0,  0,  0,  197,  165,  141,  154,  169,  176,  177,  177,  186,  186,  149,  149,   % o2
	 0,  139,  139,  0,  157,  123,  143,  144,  124,  134,  134,  112,  112,  188,  188,   % o3
	 0,  108,  108,  185,  0,  131,  159,  156,  145,  191,  191,  168,  168,  173,  173,   % o4
	 0,  124,  124,  177,  184,  0,  187,  100,  136,  112,  112,  129,  129,  113,  113,   % o5
	 0,  156,  156,  168,  130,  166,  0,  195,  142,  162,  162,  156,  156,  179,  179,   % o6
	 0,  193,  193,  147,  114,  110,  168,  0,  141,  128,  128,  123,  123,  106,  106,   % o7
	 0,  186,  186,  139,  116,  123,  160,  127,  0,  169,  169,  161,  161,  108,  108,   % o8
	 0,  157,  157,  161,  162,  164,  197,  150,  127,  0,  0,  153,  153,  111,  111,   % o9
	 0,  157,  157,  161,  162,  164,  197,  150,  127,  0,  0,  153,  153,  111,  111,   % o10
	 0,  123,  123,  134,  103,  121,  173,  160,  111,  109,  109,  0,  0,  122,  122,   % o11
	 0,  123,  123,  134,  103,  121,  173,  160,  111,  109,  109,  0,  0,  122,  122,   % o12
	 0,  105,  105,  114,  197,  166,  181,  152,  109,  153,  153,  137,  137,  0,  0,   % o13
	 0,  105,  105,  114,  197,  166,  181,  152,  109,  153,  153,  137,  137,  0,  0,   % o14
]);

nb_of_orders = [2, 1, 1, 1, 1, 1, 1, 2, 2, 2, ];
item_type = array1d(Orders0, [0, 1, 1, 2, 3, 4, 5, 6, 7, 8, 8, 9, 9, 10, 10, ]);
